System
1.0
7.310451385959371 0.0 0.0
0.0 9.520420295784943 -4.319169702840413
0.0 -0.054605839943302814 10.806155414183186
Ca Ba Br N 
12 4 8 8 
direct
0.258340444367772 0.054482248900217814 0.11678816045073173 Ca
0.1314811782462182 0.32004216050849077 0.8399467820607105 Ca
0.7416595556322282 0.9455177510997818 0.8832118395492684 Ca
0.24165955563222818 0.5544822489002184 0.6167881604507318 Ca
0.8685188217537817 0.6799578394915092 0.16005321793928962 Ca
0.27625767791145506 0.4392492820611599 0.2130582245451559 Ca
0.6314811782462183 0.1799578394915091 0.6600532179392897 Ca
0.7762576779114553 0.0607507179388401 0.286941775454844 Ca
0.7237423220885445 0.5607507179388401 0.7869417754548443 Ca
0.22374232208854478 0.93924928206116 0.713058224545156 Ca
0.7583404443677716 0.445517751099782 0.3832118395492683 Ca
0.3685188217537814 0.8200421605084909 0.33994678206071044 Ca
0.6982110863269874 0.338660073382783 0.029663005933216007 Ba
0.8017889136730124 0.8386600733827838 0.5296630059332165 Ba
0.30178891367301264 0.6613399266172162 0.9703369940667839 Ba
0.19821108632698728 0.16133992661721672 0.4703369940667838 Ba
0.07854880785119289 0.7677083677415701 0.9085323176074441 Br
0.9214511921488071 0.2322916322584304 0.0914676823925558 Br
0.9640001916668149 0.3071781556054756 0.5557326978876116 Br
0.5785488078511927 0.7322916322584299 0.5914676823925561 Br
0.03599980833318479 0.692821844394525 0.44426830211238566 Br
0.42145119214880733 0.26770836774156964 0.40853231760744424 Br
0.5359998083331848 0.8071781556054751 0.055731697887614264 Br
0.4640001916668151 0.19282184439452424 0.9442673021123886 Br
0.8711691329593424 0.979022313366293 0.6703358998330934 N
0.7172079172122504 0.893460183782328 0.4140400582861733 N
0.3711691329593432 0.5209776866337071 0.8296641001669068 N
0.21720791721225 0.6065398162176722 0.08595994171382695 N
0.7827920827877494 0.39346018378232817 0.914040058286173 N
0.12883086704065708 0.020977686633707405 0.32966410016690684 N
0.2827920827877499 0.10653981621767161 0.5859599417138273 N
0.6288308670406574 0.4790223133662928 0.17033589983309283 N
