System
1.0
5.831123118966967 2.2215920211640213e-09 -2.297792156807455
-0.9930710020538301 5.951560895943071 -2.520122412641627
-0.0001419233409027196 0.02706167716987528 8.547375275610106
Rb Al N I 
4 2 2 4 
direct
0.8229983804366336 0.0881171825622147 0.6459967608731576 Rb
0.17700161956336688 0.9118828174377852 0.35400323912684245 Rb
0.6769910229023244 0.44212108989504323 0.353982045804555 Rb
0.3230089770976757 0.5578789101049565 0.6460179541954447 Rb
0.24998941764601673 0.5000000000000016 5.691603078471854e-15 Al
0.7500105823539831 0.4999999999999984 -5.741320566181918e-15 Al
0.7500064544140429 1.199790089051507e-15 2.8825364513721706e-15 N
0.24999354558595713 -1.2000691487143326e-15 -2.904670979610776e-15 N
0.09308793749707399 0.29230578449868905 0.18617687499433797 I
0.5930820479734048 0.8938560298953303 0.186163095945505 I
0.4069179520265949 0.10614397010466971 0.8138369040544948 I
0.9069120625029262 0.7076942155013105 0.8138231250056618 I
