System
1.0
9.692723892386777 0.011002644419452517 1.5029993996732547
-5.192538929956624 8.18453156711577 1.5029993996732547
0.023821768240669453 0.043383131632492175 10.608814782480728
Te K Cs 
4 2 6 
direct
0.5000000000000001 0.5 -7.166971346890489e-18 Te
0.6513078643640666 0.3486921356359337 0.49999999999999994 Te
0.3486921356359337 0.6513078643640664 0.49999999999999994 Te
1.5849429220880823e-19 -3.205933472015274e-19 0.5 Te
0.8315578660112439 0.1684421339887562 -7.166971346890489e-18 K
0.1684421339887562 0.8315578660112439 -3.49225469625194e-17 K
0.8045671021138439 0.8045671021138436 0.2028249441817508 Cs
0.19543289788615634 0.19543289788615634 0.7971750558182492 Cs
0.42869038199365717 0.0541878677429801 0.209848720793103 Cs
0.5713096180063433 0.9458121322570199 0.790151279206897 Cs
0.9458121322570198 0.5713096180063432 0.790151279206897 Cs
0.0541878677429801 0.4286903819936571 0.209848720793103 Cs
