System
1.0
8.033570211774895 4.638183730706548 5.264463335919822
-8.033568474105994 4.638183849212719 5.264463330849272
-6.575793168711865e-07 -9.276366499829843 5.264463328993323
Si Rb Te 
3 12 12 
direct
0.246359969115851 0.2463599691155179 0.24635996911539576 Si
0.753640030884149 0.7536400308844825 0.7536400308846043 Si
0.5000009999999975 0.5000009999999975 0.5000009999999975 Si
0.4712758262364903 0.12966296513383277 0.6395936173564954 Rb
0.639594617357536 0.47127482623424916 0.12966296513086625 Rb
0.5287241737635098 0.8703370348661673 0.36040638264350416 Rb
0.8703380348659976 0.3604053826426108 0.5287241737628271 Rb
0.36040538264246413 0.5287251737657515 0.870337034869134 Rb
0.1296619651340026 0.6395946173573896 0.47127582623717323 Rb
0.9905579112201015 0.6697291104654992 0.12397431228915967 Rb
0.6697291104667642 0.12397431228927303 0.9905589112183725 Rb
0.8760256877093232 0.00944108878221912 0.330270889536807 Rb
0.009441088779893749 0.33027088953450084 0.8760256877108404 Rb
0.3302708895332357 0.8760256877107272 0.00944108878162747 Rb
0.12397431229067661 0.9905589112177811 0.6697291104631931 Rb
0.44990840065344545 0.7608152548251738 0.6571972633073965 Te
0.239184745173193 0.3428027366921584 0.5500915993464882 Te
0.3428037366924292 0.5500915993456018 0.2391847451736433 Te
0.5500915993465543 0.23918474517482594 0.34280273669260397 Te
0.8048261914197566 0.033982564513903135 0.7005700803948828 Te
0.19517480858024092 0.966017435486097 0.2994299196051167 Te
0.70057008039514 0.8048261914210864 0.0339825645172275 Te
0.9660174354851828 0.29943091960367324 0.19517480858020805 Te
0.2994299196048598 0.1951748085789108 0.9660174354827723 Te
0.6571962633075707 0.4499084006543977 0.7608152548263564 Te
0.033982564514817036 0.700569080396327 0.8048261914197893 Te
0.7608152548268066 0.657197263307841 0.4499084006535113 Te
