System
1.0
8.526903034009202 0.03508602303641985 0.0
-4.932539796954599 6.955527021171344 0.0
0.0 0.0 7.883980796640703
Te Rb Si 
10 4 4 
direct
0.04038007532328142 0.2938521391277426 0.33348740903223056 Te
0.49999999999999994 0.5 0.5 Te
0.2938521391277426 0.0403800753232785 0.33348740903223056 Te
0.7061478608722574 0.9596199246767215 0.6665125909677693 Te
0.20614786087225737 0.4596199246767215 0.8334874090322306 Te
0.0 0.0 0.0 Te
0.7938521391277424 0.5403800753232787 0.1665125909677694 Te
0.4596199246767185 0.2061478608722576 0.8334874090322306 Te
0.9596199246767185 0.7061478608722576 0.6665125909677693 Te
0.5403800753232811 0.7938521391277426 0.1665125909677694 Te
0.36833478709344125 0.3683347870934412 0.1310232059454919 Rb
0.6316652129065586 0.6316652129065592 0.8689767940545082 Rb
0.13166521290655867 0.1316652129065589 0.6310232059454918 Rb
0.8683347870934414 0.868334787093441 0.3689767940545081 Rb
0.7057558795049366 0.2942441204950674 0.5 Si
0.7942441204950633 0.20575587950493252 0.0 Si
0.20575587950493698 0.7942441204950673 0.0 Si
0.2942441204950631 0.7057558795049328 0.5 Si
