System
1.0
10.274799490870548 -0.0 -0.09090987289352508
8.22972972972973e-16 5.647323000845979 3.527027027027027e-16
-0.23456687516011554 -0.0 17.430628341150317
Te N K 
2 2 10 
direct
0.0550355166134102 0.75 0.8446318655762435 Te
0.9449644833865896 0.25 0.1553681344237569 Te
0.4247613646328386 0.25 0.6515546276005876 N
0.5752386353671618 0.75 0.3484453723994123 N
0.0562599320192843 0.25 0.6620092956944318 K
0.179056819109085 0.75 0.0694958307236306 K
0.3119902376429194 0.75 0.5129472059321379 K
0.363322739019779 0.25 0.8616298721264185 K
0.3477473586277327 0.25 0.288397765438875 K
0.6522526413722666 0.75 0.7116022345611251 K
0.6366772609802213 0.75 0.1383701278735813 K
0.6880097623570807 0.25 0.487052794067862 K
0.8209431808909147 0.25 0.9305041692763693 K
0.9437400679807153 0.75 0.3379907043055678 K
