System
1.0
6.214413411350448 -0.0 3.978835978835979e-16
1.492063492063492e-15 9.619728829390832 -1.9839788585843097
0.0 0.06778386297976009 9.821952973326745
Rb Al N I 
8 4 4 8 
direct
0.75 0.9244948270553818 0.5755051729446182 Rb
0.7791128882367386 0.3270004662030275 0.6729995337969723 Rb
0.2208871117632613 0.6729995337969723 0.3270004662030275 Rb
0.75 0.4244948270553819 0.0755051729446181 Rb
0.25 0.5755051729446182 0.9244948270553818 Rb
0.25 0.0755051729446181 0.4244948270553819 Rb
0.2791128882367386 0.1729995337969724 0.8270004662030277 Rb
0.7208871117632614 0.8270004662030277 0.1729995337969724 Rb
0.5 0.8799048040163344 0.8799048040163344 Al
0.5 0.1200951959836656 0.1200951959836656 Al
0.0 0.6200951959836656 0.6200951959836656 Al
0.0 0.3799048040163344 0.3799048040163344 Al
0.0 0.131746517224893 0.131746517224893 N
0.5 0.6317465172248933 0.6317465172248933 N
0.5 0.3682534827751069 0.3682534827751069 N
0.0 0.8682534827751067 0.8682534827751067 N
0.75 0.1543013511866034 0.3456986488133963 I
0.2155868688064137 0.9054019545610132 0.0945980454389866 I
0.715586868806414 0.5945980454389868 0.4054019545610135 I
0.2844131311935862 0.4054019545610135 0.5945980454389868 I
0.25 0.3456986488133963 0.1543013511866034 I
0.25 0.8456986488133967 0.6543013511866033 I
0.75 0.6543013511866033 0.8456986488133967 I
0.784413131193586 0.0945980454389866 0.9054019545610132 I
