System
1.0
8.487760337578658 0.012870044776987579 5.018050541516246e-16
-4.888519833951277 6.938632071186003 5.018050541516246e-16
-0.0 -0.0 7.849822953921986
Te Rb Si 
10 4 4 
direct
0.039538025785804606 0.29127561746812775 0.3349680801513666 Te
0.5 0.49999999999999994 0.5 Te
0.29127561746812786 0.0395380257858046 0.3349680801513666 Te
0.7087243825318722 0.9604619742141952 0.6650319198486334 Te
0.20872438253187212 0.46046197421419544 0.8349680801513666 Te
0.0 0.0 0.0 Te
0.7912756174681279 0.5395380257858047 0.1650319198486334 Te
0.46046197421419555 0.2087243825318721 0.8349680801513666 Te
0.9604619742141953 0.7087243825318721 0.6650319198486334 Te
0.5395380257858048 0.7912756174681277 0.1650319198486334 Te
0.36532336139069055 0.3653233613906905 0.1338509977159421 Rb
0.6346766386093097 0.6346766386093097 0.8661490022840576 Rb
0.1346766386093096 0.1346766386093096 0.6338509977159424 Rb
0.8653233613906904 0.8653233613906903 0.3661490022840579 Rb
0.7056157434943697 0.2943842565056302 0.5 Si
0.7943842565056304 0.20561574349436978 0.0 Si
0.20561574349436987 0.7943842565056304 0.0 Si
0.29438425650563027 0.7056157434943696 0.5 Si
