System
1.0
7.449634786095481 1.6747348965517243e-09 -3.098353208617896
-1.6024112743872236 7.894889865904337 -3.852813830642294
0.004484440470378444 0.08261428004235749 10.515856203994286
K Cs Te 
6 2 4 
direct
0.8173336130259894 0.024917054267269496 0.6346672260532092 K
0.7500000000000001 0.49999999999999994 5.3488107418831294e-17 K
0.3173336130259139 0.6097501717856527 0.6346672260530007 K
0.6826663869740864 0.3902498282143472 0.3653327739469993 K
0.25000000000000006 0.49999999999999994 1.3028828175096847e-17 K
0.1826663869740106 0.9750829457327305 0.36533277394679076 K
0.25000000000000006 -9.060213417502009e-20 1.8775682359105927e-17 Cs
0.7500000000000001 -3.3375930567099064e-20 3.0025428724450165e-17 Cs
0.4003512913802929 0.0932288258606477 0.8007015827592585 Te
0.5996487086197071 0.9067711741393524 0.19929841724074163 Te
0.09964870861945671 0.2925272431009631 0.1992984172405788 Te
0.9003512913805434 0.7074727568990371 0.8007015827594209 Te
