System
1.0
9.169765659758452 0.017637365643692702 6.000000000000001e-16
-8.251548682746787 3.999607189188958 6.000000000000001e-16
-0.0 -0.0 3.972098433964207
Br N Ba Ca 
2 2 1 3 
direct
0.8997828020174599 0.10021719798254 0.0 Br
0.10228196174437816 0.8977180382556222 0.49999999999999994 Br
0.2514122478365648 0.7485877521634346 0.0 N
0.7525507104296297 0.24744928957037002 0.49999999999999994 N
0.668272014236698 0.331727985763302 0.0 Ba
0.5373813717715792 0.46261862822842087 0.0 Ca
0.4637098646908697 0.5362901353091301 0.49999999999999994 Ca
0.32461002727281757 0.6753899727271826 0.49999999999999994 Ca
