System
1.0
4.210167316179135 -0.0 2.9999999999999994e-16
1.5999999999999996e-15 10.313313896288749 -0.21157284989791506
0.0 0.054221516417638484 13.227269180183711
Al Rb I N 
8 4 4 8 
direct
0.25 0.1945305556079872 0.385243401597334 Al
0.75 0.3487425604641329 0.6321421625059002 Al
0.75 0.3973389986741819 0.1731215103308052 Al
0.25 0.0770362132085239 0.903268944255877 Al
0.25 0.6026610013258183 0.8268784896691946 Al
0.75 0.8054694443920126 0.6147565984026666 Al
0.75 0.9229637867914755 0.0967310557441229 Al
0.25 0.6512574395358669 0.3678578374940998 Al
0.25 0.1617412024628592 0.1477458767279022 Rb
0.75 0.4181217285168393 0.3963005375081619 Rb
0.75 0.8382587975371407 0.8522541232720979 Rb
0.25 0.5818782714831612 0.6036994624918374 Rb
0.25 0.6532314430093861 0.0948533834774668 I
0.25 0.0771871436168215 0.6417738737612876 I
0.75 0.3467685569906144 0.9051466165225333 I
0.75 0.9228128563831783 0.358226126238713 I
0.75 0.5242476465829855 0.338779335582726 N
0.25 0.6944939225194288 0.5538099631021746 N
0.25 0.4757523534170143 0.6612206644172743 N
0.75 0.7295455978006415 0.7944124910789128 N
0.75 0.3055060774805706 0.4461900368978248 N
0.25 0.2704544021993578 0.2055875089210872 N
0.25 0.0527344063049896 0.0912155434944443 N
0.75 0.9472655936950104 0.9087844565055558 N
