System
1.0
9.236574622253482 0.0 0.0
0.0 9.236574622253482 0.0
-0.0 -0.0 9.236574622253482
Se In O K 
8 4 4 12 
direct
0.178952673512578 0.6789526735125778 0.8210473264874222 Se
0.6789526735125778 0.8210473264874222 0.178952673512578 Se
0.8210473264874222 0.178952673512578 0.6789526735125778 Se
0.3210473264874218 0.3210473264874218 0.3210473264874218 Se
0.685692906636036 0.18569290663603602 0.314307093363964 Se
0.18569290663603602 0.314307093363964 0.685692906636036 Se
0.314307093363964 0.685692906636036 0.18569290663603602 Se
0.8143070933639641 0.8143070933639641 0.8143070933639641 Se
0.9288101674589947 0.4288101674589945 0.0711898325410055 In
0.4288101674589945 0.0711898325410055 0.9288101674589947 In
0.0711898325410055 0.9288101674589947 0.4288101674589945 In
0.5711898325410055 0.5711898325410055 0.5711898325410055 In
0.03581426277600461 0.03581426277600461 0.03581426277600461 O
0.5358142627760046 0.46418573722399536 0.9641857372239955 O
0.9641857372239955 0.5358142627760046 0.46418573722399536 O
0.46418573722399536 0.9641857372239955 0.5358142627760046 O
0.0016547484771998002 0.7730660680149584 0.10801277662437281 K
0.8919872233756269 0.5016547484771998 0.7269339319850417 K
0.273066068014958 0.39198722337562725 0.9983452515228003 K
0.5016547484771998 0.7269339319850417 0.8919872233756269 K
0.39198722337562725 0.9983452515228003 0.273066068014958 K
0.7730660680149584 0.10801277662437281 0.0016547484771998002 K
0.9983452515228003 0.273066068014958 0.39198722337562725 K
0.10801277662437281 0.0016547484771998002 0.7730660680149584 K
0.7269339319850417 0.8919872233756269 0.5016547484771998 K
0.49834525152280024 0.2269339319850419 0.6080127766243731 K
0.6080127766243731 0.49834525152280024 0.2269339319850419 K
0.2269339319850419 0.6080127766243731 0.49834525152280024 K
