System
1.0
9.11288631830038 -0.03861572986203773 5.121951219512196e-16
-6.217800829036403 6.662217429301841 5.121951219512196e-16
-0.0 -0.0 7.228924161845354
O In Se K 
4 2 2 6 
direct
0.8627414154569829 0.13725858454301723 0.5 O
0.3627414154569829 0.6372585845430173 0.0 O
0.1407995744026404 0.8592004255973593 0.5 O
0.6407995744026408 0.35920042559735976 0.0 O
0.4960670168471951 0.5039329831528052 0.5 In
0.9960670168471948 0.003932983152804899 0.0 In
0.6581332794692633 0.3418667205307366 0.5 Se
0.1581332794692633 0.8418667205307369 0.0 Se
0.34541626619533744 0.6545837338046625 0.5 K
0.8454162661953376 0.1545837338046625 0.0 K
0.7484202647292246 0.7515788171006487 0.7499245714567684 K
0.24842118289935142 0.2515797352707754 0.25007542854323167 K
0.7484211828993513 0.7515797352707754 0.24992457145676844 K
0.24842026472922477 0.25157881710064867 0.7500754285432316 K
