System
1.0
6.653500834087041 -0.0 0.0
0.0 10.31012994474946 0.0
0.0 0.0 10.31012994474946
Ca I Sr N 
4 6 8 6 
direct
0.5033159018114826 0.3304053656553986 0.1695946343446013 Ca
0.49668409818851766 0.8304053656553985 0.3304053656553986 Ca
0.5033159018114826 0.6695946343446015 0.8304053656553985 Ca
0.49668409818851766 0.1695946343446013 0.6695946343446015 Ca
0.0 0.0 0.0 I
0.0 0.5 0.5 I
0.9451954340335168 0.1453876927719561 0.3546123072280438 I
0.0548045659664827 0.3546123072280438 0.8546123072280438 I
0.0548045659664827 0.6453876927719562 0.1453876927719561 I
0.9451954340335168 0.8546123072280438 0.6453876927719562 I
0.7916717683903607 0.6675131148793372 0.5766982797854163 Sr
0.7916717683903607 0.0766982797854161 0.1675131148793371 Sr
0.20832823160963906 0.1675131148793371 0.9233017202145838 Sr
0.20832823160963906 0.8324868851206629 0.0766982797854161 Sr
0.7916717683903607 0.9233017202145838 0.8324868851206629 Sr
0.20832823160963906 0.5766982797854163 0.3324868851206628 Sr
0.20832823160963906 0.42330172021458407 0.6675131148793372 Sr
0.7916717683903607 0.3324868851206628 0.42330172021458407 Sr
0.7199027698531844 0.6309812405067284 0.1309812405067287 N
0.2800972301468159 0.1309812405067287 0.3690187594932713 N
0.7199027698531844 0.3690187594932713 0.8690187594932716 N
0.2800972301468159 0.8690187594932716 0.6309812405067284 N
0.18494807191101437 0.5 0.0 N
0.8150519280889853 0.0 0.5 N
