System
1.0
5.293261292200352 0.16481047346762495 -14.058140973674075
-0.021387625841285462 5.295783244160587 -14.058140973674066
-0.15911456529318 -0.16481047358313244 15.020806412985603
I Sr Ca N 
3 2 4 3 
direct
0.5 0.5000000000000001 1.44145149350794e-16 I
0.6731879457691369 0.6731879457691371 9.796790288496302e-15 I
0.326812054230863 0.32681205423086307 -9.423894960239814e-15 I
0.9023923628216941 0.9023923628216944 -6.250307560706687e-15 Sr
0.0976076371783056 0.09760763717830563 6.3787559192545685e-15 Sr
0.9022385940123244 0.40223859401232465 0.5000000000000107 Ca
0.5977614059876752 0.09776140598767542 0.49999999999998906 Ca
0.09776140598767538 0.5977614059876754 0.49999999999998895 Ca
0.4022385940123246 0.902238594012325 0.5000000000000109 Ca
0.0 0.0 0.0 N
0.7891431131866459 0.7891431131866462 -7.834853166756442e-15 N
0.2108568868133542 0.2108568868133543 7.641930561036245e-15 N
