System
1.0
7.792641969183855 -0.015321200732900388 1.2262632088296526
6.451671620403824 4.370519065460459 1.2262632088296523
0.13543459144852665 0.0414091166820448 8.085267697640026
O In K Se 
2 1 3 1 
direct
0.5657251547566144 0.5657251547566147 0.8225642662976401 O
0.8076143348917594 0.8076143348917592 0.06186681492083565 O
0.3123596367370274 0.3123596367370273 0.5310982586650316 In
0.0038843958904809005 0.0038843958904809 0.04007245497089101 K
0.22890577315580823 0.22890577315580823 0.2489272399132632 K
0.7583317195682042 0.7583317195682043 0.7324695502354887 K
0.5106789850001053 0.5106789850001052 0.5005004149968597 Se
