System
1.0
7.458650729004437 -0.21168074530972494 4.0975609756097563e-16
-0.24597239157418468 7.457598609324353 4.0975609756097563e-16
-0.0 -0.0 4.290203378345713
O In K Se 
2 1 3 1 
direct
0.5100279765155575 0.012488645802955198 0.5 O
0.9875113541970445 0.48997202348444246 0.5 O
0.9984070274342006 0.0015929725657989964 0.0 In
0.23018249658642403 0.7698175034135756 0.0 K
0.24783814755107955 0.24999183932221367 0.0 K
0.7500081606777864 0.7521618524489204 0.0 K
0.7760248370379066 0.2239751629620934 0.0 Se
