System
1.0
14.595507045885824 -0.0 0.0
-0.0 14.595507045885826 0.0
0.0 0.0 14.595507045885826
Rb Si Te 
32 8 32 
direct
0.3650778788209538 0.1510135053822293 0.41343836153842195 Rb
0.8479896835151693 0.8479896835151693 0.15201031648483102 Rb
0.5865616384615782 0.6349221211790461 0.1510135053822293 Rb
0.08656163846157822 0.6510135053822295 0.1349221211790461 Rb
0.5865616384615782 0.3650778788209539 0.8489864946177706 Rb
0.913438361538422 0.6510135053822295 0.865077878820954 Rb
0.3479896835151692 0.6520103164848308 0.3479896835151692 Rb
0.865077878820954 0.913438361538422 0.6510135053822295 Rb
0.1349221211790461 0.913438361538422 0.3489864946177706 Rb
0.3650778788209538 0.8489864946177706 0.5865616384615782 Rb
0.41343836153842195 0.6349221211790461 0.8489864946177706 Rb
0.08656163846157822 0.3489864946177706 0.865077878820954 Rb
0.3489864946177706 0.1349221211790461 0.913438361538422 Rb
0.3489864946177706 0.865077878820954 0.08656163846157822 Rb
0.6349221211790461 0.1510135053822293 0.5865616384615782 Rb
0.15201031648483102 0.15201031648483102 0.15201031648483102 Rb
0.3479896835151692 0.3479896835151692 0.6520103164848308 Rb
0.865077878820954 0.08656163846157822 0.3489864946177706 Rb
0.1349221211790461 0.08656163846157822 0.6510135053822295 Rb
0.6510135053822295 0.865077878820954 0.913438361538422 Rb
0.6520103164848308 0.3479896835151692 0.3479896835151692 Rb
0.8489864946177706 0.41343836153842195 0.6349221211790461 Rb
0.8479896835151693 0.15201031648483102 0.8479896835151693 Rb
0.6510135053822295 0.1349221211790461 0.08656163846157822 Rb
0.8489864946177706 0.5865616384615782 0.3650778788209539 Rb
0.41343836153842195 0.3650778788209539 0.1510135053822293 Rb
0.1510135053822293 0.41343836153842195 0.3650778788209538 Rb
0.6349221211790461 0.8489864946177706 0.41343836153842195 Rb
0.15201031648483102 0.8479896835151693 0.8479896835151693 Rb
0.6520103164848308 0.6520103164848308 0.6520103164848308 Rb
0.913438361538422 0.3489864946177706 0.1349221211790461 Rb
0.1510135053822293 0.5865616384615782 0.6349221211790461 Rb
0.0 0.0 0.0 Si
0.75 0.5 0.0 Si
0.5 0.5 0.5 Si
0.0 0.25 0.5 Si
0.25 0.5 0.0 Si
0.5 0.0 0.75 Si
0.5 0.0 0.25 Si
0.0 0.75 0.5 Si
0.40247542258875474 0.11169555528870091 0.1538023888280153 Te
0.3982786936282506 0.3982786936282506 0.3982786936282506 Te
0.5975245774112452 0.11169555528870091 0.8461976111719848 Te
0.8883044447112992 0.1538023888280153 0.5975245774112452 Te
0.3982786936282506 0.6017213063717496 0.6017213063717496 Te
0.6538023888280153 0.6116955552887008 0.9024754225887549 Te
0.9024754225887549 0.6538023888280153 0.6116955552887008 Te
0.6116955552887008 0.09752457741124511 0.3461976111719848 Te
0.10172130637174931 0.10172130637174931 0.8982786936282505 Te
0.8461976111719848 0.40247542258875474 0.8883044447112992 Te
0.38830444471129905 0.9024754225887549 0.3461976111719848 Te
0.09752457741124511 0.3461976111719848 0.6116955552887008 Te
0.40247542258875474 0.8883044447112992 0.8461976111719848 Te
0.10172130637174931 0.8982786936282505 0.10172130637174931 Te
0.9024754225887549 0.3461976111719848 0.38830444471129905 Te
0.1538023888280153 0.40247542258875474 0.11169555528870091 Te
0.6116955552887008 0.9024754225887549 0.6538023888280153 Te
0.5975245774112452 0.8883044447112992 0.1538023888280153 Te
0.11169555528870091 0.8461976111719848 0.5975245774112452 Te
0.8883044447112992 0.8461976111719848 0.40247542258875474 Te
0.3461976111719848 0.38830444471129905 0.9024754225887549 Te
0.09752457741124511 0.6538023888280153 0.38830444471129905 Te
0.11169555528870091 0.1538023888280153 0.40247542258875474 Te
0.3461976111719848 0.6116955552887008 0.09752457741124511 Te
0.6017213063717496 0.3982786936282506 0.6017213063717496 Te
0.8982786936282505 0.8982786936282505 0.8982786936282505 Te
0.6538023888280153 0.38830444471129905 0.09752457741124511 Te
0.38830444471129905 0.09752457741124511 0.6538023888280153 Te
0.8982786936282505 0.10172130637174931 0.10172130637174931 Te
0.8461976111719848 0.5975245774112452 0.11169555528870091 Te
0.1538023888280153 0.5975245774112452 0.8883044447112992 Te
0.6017213063717496 0.6017213063717496 0.3982786936282506 Te
