System
1.0
6.927811925599756 0.0 -0.0
0.0 8.23655584120692 0.0
0.0 0.0 10.961568120530519
Te K Cs 
4 2 6 
direct
0.25 0.5 0.12995591793004527 Te
0.25 0.0 0.369625779522769 Te
0.75 0.0 0.6303742204772307 Te
0.75 0.5 0.8700440820699545 Te
0.75 0.5 0.433244662256237 K
0.25 0.5 0.566755337743763 K
0.0 0.0 0.0 Cs
0.5 0.0 0.0 Cs
0.75 0.2112457735071216 0.21712276994956028 Cs
0.75 0.7887542264928784 0.21712276994956028 Cs
0.25 0.2112457735071216 0.7828772300504399 Cs
0.25 0.7887542264928784 0.7828772300504399 Cs
