System
1.0
3.932208459757334 -4.0233636254e-05 -4.08317510914e-05
-6.3175795266e-06 6.561686891990377 0.0081834394488672
4.17063067341e-05 -0.0115867150672422 9.566865580718991
Rb Al N I 
2 4 4 2 
direct
0.4999877070122319 0.005220514659 0.49999657980917367 Rb
-7.270813120100001e-06 0.9947794754105125 3.417972105800202e-06 Rb
0.5000073735104151 0.3866762792310769 0.8185648034325315 Al
0.5000082724729253 0.38669327478471727 0.18140126288011 Al
-1.2721021011900001e-05 0.6133067215355599 0.31859874307079444 Al
-1.43037213144e-05 0.6133237862840069 0.6814351113250241 Al
0.5000024951306415 0.7415272236553679 0.7928153100411941 N
0.5000009831512844 0.7415281092401014 0.20721179806344428 N
1.6154926253300003e-05 0.2584718840533097 0.29278819032056247 N
1.9911160012400004e-05 0.25847277656758105 0.7071846916695425 N
0.5000070977713105 0.2673614484824962 0.9999900928624862 I
-1.6699579625000002e-05 0.732638506096264 0.5000099985530305 I
