System
1.0
6.560277722893547 -0.0016575816109448123 -1.1054670702959928
-0.1818881083132205 6.577429274402795 -1.0892582570016087
-0.02412568022845132 0.0019301142746146465 20.434233869990692
I N Sr Ca 
6 6 8 4 
direct
0.5865563736626904 0.0912579382376671 0.1727425361749574 I
0.2586426932188247 0.7563764282096617 0.4991822784948075 I
0.9295727450005251 0.4307592147055924 0.8366173597323262 I
0.1634436263373093 0.1685174020626451 0.3272574638250387 I
0.8204272549994216 0.8441398549732069 0.6633826402676669 I
0.4913573067812363 0.5071941497144961 0.0008177215051974 I
0.0879463813157626 0.5913196536891016 0.1772622457785597 N
0.7415801592317266 0.2392696797958354 0.5005453651210903 N
0.4027271145145339 0.9027279878578011 0.8384923974708707 N
0.0084198407683498 0.9887243146745948 0.9994546348789068 N
0.6620536186842086 0.6640584079108987 0.3227377542214308 N
0.3472728854856861 0.3142345903870677 0.6615076025291478 N
0.0424019603619457 0.529825315276248 0.5826425235781298 Sr
0.7075980396379619 0.1971807916980489 0.9173574764218623 Sr
0.2743323673991427 0.2967651052339447 0.0874486632959713 Sr
0.9443511354522754 0.9561284026393925 0.4123099121006021 Sr
0.6095640112216285 0.6249191311665384 0.7497438513416719 Sr
0.8056488645477242 0.7938184905385773 0.0876900878994126 Sr
0.4756676326008721 0.4593164419381301 0.412551336704037 Sr
0.1404359887782858 0.1251752798248811 0.7502561486583211 Sr
0.8749999999998844 0.379532164481135 0.2499999999999888 Ca
0.5413168268287788 0.045141986680277 0.5798429952368002 Ca
0.2086831731711745 0.7152979914432891 0.9201570047632018 Ca
0.3750000000000533 0.8783202768609824 0.2500000000000076 Ca
