System
1.0
7.013471525557895 0.0 -3.626542023439363
1.304693140794224e-15 7.9190375682334935 5.018050541516246e-16
-0.013951233991919464 0.0 8.568065158427828
Te Rb Si 
10 4 4 
direct
0.2941419551357586 0.3332822112168635 0.2534905326675805 Te
0.7058580448642416 0.6667177887831365 0.7465094673324197 Te
0.2058580448642413 0.8332822112168635 0.7465094673324197 Te
0.5406524224681762 0.1667177887831366 0.74650946733242 Te
0.7941419551357584 0.1667177887831366 0.2534905326675805 Te
0.459347577531824 0.8332822112168635 0.2534905326675803 Te
0.9593475775318238 0.6667177887831365 0.2534905326675803 Te
0.040652422468176 0.3332822112168635 0.74650946733242 Te
-0.0 0.0 -0.0 Te
0.5 0.5 -0.0 Te
0.3684722693521497 0.1309109149451824 0.0 Rb
0.6315277306478503 0.8690890850548176 -0.0 Rb
0.1315277306478503 0.6309109149451824 -0.0 Rb
0.8684722693521497 0.3690890850548176 0.0 Rb
0.2058715049432055 0.0 0.4117420098864063 Si
0.7941284950567946 0.0 0.5882579901135937 Si
0.2941284950567945 0.5 0.5882579901135937 Si
0.7058715049432054 0.5 0.4117420098864063 Si
