System
1.0
4.628033382835897 -0.0 3.0000000000000004e-16
1.5000000000000003e-15 9.290789612725856 6.000000000000001e-16
-0.0 -0.0 18.177936822190627
Rb Al N I 
8 4 4 8 
direct
0.75 0.229554043071052 0.9574339671461424 Rb
0.75 0.729554043071052 0.5425660328538576 Rb
0.25 0.770445956928948 0.042566032853858 Rb
0.25 0.270445956928948 0.4574339671461419 Rb
0.75 0.0826508823749792 0.2123484022915082 Rb
0.75 0.5826508823749789 0.2876515977084919 Rb
0.25 0.9173491176250211 0.7876515977084919 Rb
0.25 0.4173491176250206 0.7123484022915081 Rb
0.75 0.1370819513575729 0.6377631233172741 Al
0.75 0.6370819513575728 0.8622368766827259 Al
0.25 0.8629180486424272 0.3622368766827259 Al
0.25 0.362918048642427 0.1377631233172742 Al
0.75 0.5025955388042265 0.0987516060724805 N
0.75 0.0025955388042265 0.4012483939275194 N
0.25 0.4974044611957735 0.9012483939275199 N
0.25 0.9974044611957735 0.5987516060724801 N
0.75 0.3765865119327361 0.5736925845670733 I
0.75 0.8765865119327362 0.9263074154329267 I
0.25 0.6234134880672638 0.4263074154329269 I
0.25 0.1234134880672639 0.0736925845670732 I
0.75 0.1819384196677362 0.7733169516327673 I
0.75 0.6819384196677363 0.7266830483672327 I
0.25 0.8180615803322637 0.2266830483672327 I
0.25 0.3180615803322639 0.2733169516327671 I
