System
1.0
9.086928649112604 0.010314979143236735 1.4090619371936763
-4.868005246834335 7.672998344171034 1.4090619371936763
0.022332907725627613 0.04067168590546141 9.945763858575683
Te Cs K 
4 2 6 
direct
0.5000000000000001 0.5 -7.166971346890489e-18 Te
0.6513078643640666 0.3486921356359337 0.49999999999999994 Te
0.3486921356359337 0.6513078643640664 0.49999999999999994 Te
1.5849429220880823e-19 -3.205933472015274e-19 0.5 Te
0.8315578660112439 0.1684421339887562 -7.166971346890489e-18 Cs
0.1684421339887562 0.8315578660112439 -3.49225469625194e-17 Cs
0.8045671021138439 0.8045671021138436 0.2028249441817508 K
0.19543289788615634 0.19543289788615634 0.7971750558182492 K
0.42869038199365717 0.0541878677429801 0.209848720793103 K
0.5713096180063433 0.9458121322570199 0.790151279206897 K
0.9458121322570198 0.5713096180063432 0.790151279206897 K
0.0541878677429801 0.4286903819936571 0.209848720793103 K
