System
1.0
8.200827977093486 -0.01612373981890946 1.2904960435778727
6.78961632432974 4.5994510165083895 1.2904960435778725
0.1425287843339257 0.0435781656511043 8.508781719897362
Se In K O 
2 1 3 1 
direct
0.5657251547566144 0.5657251547566147 0.8225642662976401 Se
0.8076143348917594 0.8076143348917592 0.06186681492083565 Se
0.3123596367370274 0.3123596367370273 0.5310982586650316 In
0.0038843958904809005 0.0038843958904809 0.04007245497089101 K
0.22890577315580823 0.22890577315580823 0.2489272399132632 K
0.7583317195682042 0.7583317195682043 0.7324695502354887 K
0.5106789850001053 0.5106789850001052 0.5005004149968597 O
