System
1.0
6.494823680249771 0.0 -0.0
0.0 7.7217711011314885 0.0
0.0 0.0 10.27647011299736
Te Cs K 
4 2 6 
direct
0.25 0.5 0.12995591793004527 Te
0.25 0.0 0.369625779522769 Te
0.75 0.0 0.6303742204772307 Te
0.75 0.5 0.8700440820699545 Te
0.75 0.5 0.433244662256237 Cs
0.25 0.5 0.566755337743763 Cs
0.0 0.0 0.0 K
0.5 0.0 0.0 K
0.75 0.2112457735071216 0.21712276994956028 K
0.75 0.7887542264928784 0.21712276994956028 K
0.25 0.2112457735071216 0.7828772300504399 K
0.25 0.7887542264928784 0.7828772300504399 K
