System
1.0
13.606497987141793 0.003435428984652661 0.23085490751555796
-11.52306661989138 7.235726290415574 0.23085490751555782
-0.013265333036460993 -0.046092178807588126 9.303729844628373
Te N K 
2 2 10 
direct
0.673350355030616 0.3266496449693844 0.24999999999999997 Te
0.3266496449693844 0.6733503550306159 0.75 Te
0.920703837885619 0.0792961621143812 0.24999999999999997 N
0.07929616211438122 0.9207038378856192 0.75 N
0.7850557578727071 0.7149850082787692 0.10369797356866262 K
0.8018985801035213 0.1896373786177835 0.9910146182682968 K
0.6323721115479745 0.3676278884520253 0.75 K
0.8103626213822165 0.1981014198964784 0.508985381731703 K
0.7149850082787691 0.7850557578727071 0.6036979735686626 K
0.2850149917212308 0.21494424212729324 0.3963020264313376 K
0.1896373786177835 0.8018985801035216 0.49101461826829673 K
0.36762788845202526 0.6323721115479745 0.25 K
0.1981014198964783 0.8103626213822165 0.0089853817317032 K
0.2149442421272932 0.2850149917212308 0.8963020264313375 K
