System
1.0
3.704688977857666 4.0758634144144154e-10 1.0030280970527068
-0.2704999103714517 6.570957247432365 0.9990926830911424
0.009048340418526972 0.003263595470639241 7.309738686091037
Ca Ba Br N 
3 1 2 2 
direct
0.149855650289484 0.3817386293098514 0.700289699421171 Ca
0.8435124509663338 0.6153856545701271 0.312974098067188 Ca
0.346818309659466 0.1146257865022171 0.3063633806809442 Ca
0.660545425809513 0.8899949095194123 0.6789081483810377 Ba
0.2455467723917017 0.7551559143069393 0.508906455216584 Br
0.7479106109285196 0.242568264749052 0.5041787781429791 Br
0.5004084737407125 0.5094882135594198 0.9991820525185746 N
0.0054013062142646 0.9910426274829949 0.989197387571514 N
